
Gurobi 12.0.2 (win64) logging started Sun Jun  8 11:32:12 2025

Set parameter LogFile to value "C:\Ioana\_uni\honours\slp\algorithm\Main_files\results\others\prox_tubules_new_model\Task_002_Sample002_irr_gurobi.log"
Gurobi Optimizer version 12.0.2 build v12.0.2rc0 (win64 - Windows 11.0 (26100.2))

CPU model: Intel(R) Core(TM) Ultra 5 125H, instruction set [SSE2|AVX|AVX2]
Thread count: 14 physical cores, 18 logical processors, using up to 18 threads

Non-default parameters:
TimeLimit  2200

Optimize a model with 47226 rows, 34496 columns and 146683 nonzeros
Model fingerprint: 0x67832fdd
Variable types: 17251 continuous, 17245 integer (17245 binary)
Coefficient statistics:
  Matrix range     [1e-04, 8e+04]
  Objective range  [1e-04, 9e-01]
  Bounds range     [1e+00, 1e+03]
  RHS range        [1e+00, 1e+00]
Presolve removed 30825 rows and 21543 columns
Presolve time: 0.30s
Presolved: 16401 rows, 12953 columns, 54575 nonzeros
Variable types: 6410 continuous, 6543 integer (6543 binary)

Root relaxation: objective 1.794341e-03, 1968 iterations, 0.10 seconds (0.20 work units)

    Nodes    |    Current Node    |     Objective Bounds      |     Work
 Expl Unexpl |  Obj  Depth IntInf | Incumbent    BestBd   Gap | It/Node Time

     0     0    0.00179    0    4          -    0.00179      -     -    0s
H    0     0                       1.7943410    0.00179   100%     -    0s
     0     0    0.91279    0    4    1.79434    0.91279  49.1%     -    0s
     0     0    0.91803    0    1    1.79434    0.91803  48.8%     -    0s
     0     0    0.91997    0    5    1.79434    0.91997  48.7%     -    0s
     0     0    0.91997    0    1    1.79434    0.91997  48.7%     -    0s
     0     0 infeasible    0         1.79434    1.79434  0.00%     -    0s

Explored 1 nodes (2011 simplex iterations) in 0.87 seconds (0.99 work units)
Thread count was 18 (of 18 available processors)

Solution count 1: 1.79434 

Optimal solution found (tolerance 1.00e-04)
Best objective 1.794341011503e+00, best bound 1.794341011503e+00, gap 0.0000%
